c Binary Pigeonhole Principle for 5 pigeons and 4 holes
c Generated with `cnfgen`
c (C) 2012-2019 Massimo Lauria <massimo.lauria@uniroma1.it>
c https://massimolauria.net/cnfgen
c
c COMMAND LINE: cnfgen -v -o pigeon5.cnf bphp 5 4
c
p cnf 10 40
2 1 4 3 0
2 1 6 5 0
2 1 8 7 0
2 1 10 9 0
4 3 6 5 0
4 3 8 7 0
4 3 10 9 0
6 5 8 7 0
6 5 10 9 0
8 7 10 9 0
2 -1 4 -3 0
2 -1 6 -5 0
2 -1 8 -7 0
2 -1 10 -9 0
4 -3 6 -5 0
4 -3 8 -7 0
4 -3 10 -9 0
6 -5 8 -7 0
6 -5 10 -9 0
8 -7 10 -9 0
-2 1 -4 3 0
-2 1 -6 5 0
-2 1 -8 7 0
-2 1 -10 9 0
-4 3 -6 5 0
-4 3 -8 7 0
-4 3 -10 9 0
-6 5 -8 7 0
-6 5 -10 9 0
-8 7 -10 9 0
-2 -1 -4 -3 0
-2 -1 -6 -5 0
-2 -1 -8 -7 0
-2 -1 -10 -9 0
-4 -3 -6 -5 0
-4 -3 -8 -7 0
-4 -3 -10 -9 0
-6 -5 -8 -7 0
-6 -5 -10 -9 0
-8 -7 -10 -9 0
